units           metal
boundary        s s p
atom_style      atomic
neighbor 0.3 bin
neigh_modify delay 5

read_data Nb_large.lmp

pair_style eam/alloy
pair_coeff * * NbCr_Heaton.eam.alloy Nb

variable botbound equal ylo+10
variable topbound equal yhi-10

region 1 block INF INF INF ${botbound} INF INF units box
group lower region 1
region 2 block INF INF ${topbound} INF INF INF units box
group upper region 2
group boundary union lower upper
group mobile subtract all boundary

variable quarter equal xhi/6
variable half equal xhi/2

region leftupper block INF ${quarter} ${half} INF INF INF units box
region leftlower block INF ${quarter} INF ${half} INF INF units box
group leftupper region leftupper
group leftlower region leftlower

timestep  0.001

group boundary union upper lower
group mobile subtract all boundary
compute new mobile temp

velocity upper set 0.0 0.15 0.0
velocity mobile ramp vy 0.0 0.15 y ${botbound} ${topbound} sum yes units box

fix 1 all nve
fix 2 boundary setforce 0.0 0.0 0.0
#fix 2 boundary setforce NULL 0.0 NULL

neigh_modify exclude group leftupper leftlower
thermo_modify temp new

dump dump_1 all custom 1000 crack.lammpstrj id type x y z
thermo 100
thermo_style custom step temp vol press
run 2000000
unfix 1
unfix 2
undump dump_1
