clear
units metal
dimension 3
boundary p p p

lattice bcc 3.322 origin 0.0 0.0 0.0 orient x 1 0 0 orient y 0 1 0 orient z 0 0 1
region box block 0 6 0 6 0 6 units lattice
create_box 2 box
create_atoms 1 box

pair_style eam/alloy
pair_coeff * * CrNb.eam.alloy Nb Cr

reset_timestep 0
fix 1 all box/relax iso 0.0 vmax 0.001
minimize 1.0e-8 1.0e-10 10000 100000

variable lattice_a equal lx/6.0
print "${lattice_a}"